%%% static parameters %%%
timespan = 1;
Fact = [2];
Distr1 = [5];
Distr2 = [10];
Clients_N = [60];
Demand_W = [15];
Lt0 = [4];
Lt1 = [4];
SS_ = [0.85];
DS_D = [8];
K = [200];
MA = [500];
%%% dynamic parameters %%%
lost_ratio_sales_ret_th = 0.738078632942851;
lost_ratio_sales_ret_w = 87;
lost_ratio_sales_dis_th = 0.9729290236768089;
lost_ratio_sales_dis_w = 9;
lost_ratio_sales_fac_th = 0.17061380674504534;
lost_ratio_sales_fac_w = 19;
stock_customer_MA_mean_relative_th = 0.5179685105387575;
stock_customer_MA_mean_relative_w = 11;
stock_distributor_MA_mean_relative_th = 0.5725177670990509;
stock_distributor_MA_mean_relative_w = 71;
stock_retailer_MA_mean_relative_th = 0.8296755754021197;
stock_retailer_MA_mean_relative_w = 28;
stock_factory_MA_mean_relative_th = 0.7463813437243103;
stock_factory_MA_mean_relative_w = 53;
